
Gurobi 8.1.1 (linux64, Python) logging started Mon Sep  9 19:36:57 2019

Academic license - for non-commercial use only

Gurobi 8.1.1 (linux64, Python) logging started Mon Sep  9 19:45:50 2019

Academic license - for non-commercial use only

Gurobi 8.1.1 (linux64, Python) logging started Wed Sep 11 00:17:32 2019

Academic license - for non-commercial use only

Gurobi 8.1.1 (linux64, Python) logging started Wed Sep 11 00:20:04 2019

Academic license - for non-commercial use only

Gurobi 8.1.1 (linux64, Python) logging started Wed Sep 11 00:21:50 2019

Academic license - for non-commercial use only

Gurobi 8.1.1 (linux64, Python) logging started Wed Sep 11 00:30:13 2019

Academic license - for non-commercial use only

Gurobi 8.1.1 (linux64, Python) logging started Wed Sep 11 00:32:22 2019

Academic license - for non-commercial use only

Gurobi 8.1.1 (linux64, Python) logging started Thu Sep 12 16:53:37 2019

Academic license - for non-commercial use only

Gurobi 8.1.1 (linux64, Python) logging started Thu Sep 12 16:54:05 2019

Academic license - for non-commercial use only

Gurobi 8.1.1 (linux64, Python) logging started Thu Sep 12 17:00:34 2019

Academic license - for non-commercial use only

Gurobi 8.1.1 (linux64, Python) logging started Thu Sep 12 17:01:31 2019

Academic license - for non-commercial use only

Gurobi 8.1.1 (linux64, Python) logging started Fri Sep 13 00:28:38 2019

Academic license - for non-commercial use only

Gurobi 8.1.1 (linux64, Python) logging started Fri Sep 13 00:30:02 2019

Academic license - for non-commercial use only

Gurobi 8.1.1 (linux64, Python) logging started Wed Sep 18 17:42:03 2019

Academic license - for non-commercial use only

Gurobi 8.1.1 (linux64, Python) logging started Mon Sep 23 11:51:15 2019

Academic license - for non-commercial use only

Gurobi 8.1.1 (linux64, Python) logging started Tue Oct  1 09:34:36 2019

Academic license - for non-commercial use only

Gurobi 8.1.1 (linux64, Python) logging started Tue Oct  1 09:35:48 2019

Academic license - for non-commercial use only

Gurobi 8.1.1 (linux64, Python) logging started Tue Oct  1 09:36:23 2019

Academic license - for non-commercial use only

Gurobi 8.1.1 (linux64, Python) logging started Tue Oct  1 09:58:47 2019

Academic license - for non-commercial use only

Gurobi 8.1.1 (linux64, Python) logging started Sat Nov 23 13:57:38 2019

Academic license - for non-commercial use only
